400
120 120
1 84 7
2 84 185
3 84 650
4 84 253
5 84 860
6 84 212
7 84 817
8 84 700
9 83 618
10 83 908
11 83 150
12 83 903
13 82 52
14 82 986
15 82 657
16 82 449
17 81 90
18 81 79
19 81 393
20 81 407
21 81 129
22 81 532
23 81 600
24 80 914
25 80 933
26 80 713
27 80 678
28 80 848
29 80 63
30 79 348
31 79 67
32 79 674
33 79 105
34 79 890
35 79 255
36 78 667
37 78 704
38 78 729
39 78 757
40 78 102
41 77 129
42 77 552
43 77 763
44 76 166
45 76 758
46 76 272
47 76 233
48 75 118
49 75 168
50 75 531
51 75 575
52 75 921
53 75 561
54 74 519
55 74 475
56 74 189
57 73 694
58 73 593
59 73 244
60 73 240
61 73 35
62 73 174
63 73 301
64 73 204
65 73 96
66 73 516
67 72 287
68 72 402
69 72 468
70 72 198
71 72 519
72 72 706
73 72 230
74 72 122
75 72 28
76 72 106
77 71 447
78 71 131
79 71 620
80 71 895
81 71 258
82 71 209
83 71 174
84 70 39
85 70 47
86 70 498
87 70 50
88 70 780
89 70 487
90 69 604
91 69 384
92 68 627
93 68 9
94 68 976
95 68 315
96 68 62
97 67 664
98 67 756
99 67 433
100 67 137
101 67 302
102 67 834
103 66 983
104 66 578
105 66 32
106 66 200
107 66 943
108 66 496
109 66 591
110 66 827
111 66 81
112 66 358
113 65 749
114 65 840
115 65 912
116 65 856
117 64 47
118 64 672
119 64 199
120 64 129
121 64 685
122 64 875
123 64 338
124 64 42
125 64 20
126 64 197
127 64 15
128 64 104
129 64 579
130 64 50
131 63 549
132 63 159
133 63 553
134 63 181
135 63 816
136 63 918
137 62 659
138 62 101
139 62 12
140 62 97
141 62 236
142 62 229
143 62 45
144 62 312
145 62 492
146 61 170
147 61 217
148 61 161
149 61 552
150 61 534
151 61 710
152 61 40
153 61 449
154 61 811
155 61 430
156 61 385
157 61 37
158 61 169
159 60 373
160 60 254
161 60 749
162 60 988
163 60 891
164 60 484
165 60 359
166 60 73
167 59 681
168 59 483
169 59 984
170 59 643
171 59 35
172 59 109
173 58 184
174 58 781
175 58 675
176 58 832
177 58 546
178 58 775
179 58 905
180 58 255
181 58 930
182 58 85
183 57 567
184 57 279
185 57 340
186 57 650
187 57 318
188 57 971
189 57 277
190 57 935
191 56 160
192 56 465
193 56 601
194 56 782
195 56 571
196 56 11
197 56 904
198 56 792
199 56 791
200 55 868
201 55 664
202 55 14
203 55 651
204 55 741
205 55 711
206 55 746
207 55 247
208 55 685
209 55 129
210 55 306
211 54 799
212 54 568
213 54 49
214 54 910
215 54 816
216 53 943
217 53 241
218 53 277
219 53 835
220 53 476
221 53 595
222 53 969
223 53 737
224 53 962
225 53 305
226 53 21
227 52 470
228 52 849
229 52 928
230 52 497
231 52 130
232 52 44
233 51 65
234 51 72
235 51 881
236 51 922
237 50 123
238 50 824
239 50 974
240 50 888
241 50 813
242 50 933
243 50 438
244 49 639
245 49 80
246 49 87
247 49 710
248 49 943
249 49 157
250 49 368
251 49 161
252 49 211
253 49 446
254 48 693
255 48 950
256 48 502
257 47 371
258 47 915
259 47 291
260 46 602
261 46 280
262 46 824
263 46 39
264 46 352
265 46 96
266 46 412
267 45 479
268 45 660
269 45 629
270 45 868
271 45 412
272 45 989
273 45 663
274 45 857
275 45 97
276 45 530
277 44 283
278 44 545
279 44 286
280 44 191
281 44 965
282 44 14
283 44 76
284 44 532
285 43 458
286 43 390
287 43 637
288 43 339
289 43 529
290 43 115
291 43 15
292 42 294
293 42 855
294 42 464
295 42 373
296 42 577
297 41 862
298 41 966
299 41 55
300 41 329
301 41 656
302 41 305
303 40 919
304 40 59
305 40 833
306 40 546
307 39 726
308 39 550
309 39 967
310 38 513
311 38 678
312 38 513
313 38 741
314 37 664
315 37 705
316 37 14
317 37 331
318 37 328
319 37 378
320 37 671
321 37 238
322 36 546
323 36 145
324 36 370
325 36 639
326 36 354
327 36 629
328 36 50
329 36 591
330 35 680
331 35 660
332 35 17
333 35 647
334 35 750
335 34 570
336 34 164
337 34 68
338 34 124
339 34 390
340 34 620
341 34 307
342 34 683
343 33 189
344 33 255
345 33 161
346 33 586
347 33 649
348 33 54
349 33 352
350 32 594
351 32 487
352 32 399
353 32 109
354 32 407
355 32 591
356 31 57
357 31 358
358 31 38
359 31 232
360 31 797
361 31 42
362 30 619
363 29 129
364 29 111
365 29 492
366 29 717
367 29 468
368 28 850
369 28 792
370 28 158
371 27 220
372 27 72
373 27 249
374 27 561
375 27 907
376 27 471
377 27 214
378 26 254
379 26 153
380 26 44
381 26 377
382 26 65
383 26 226
384 26 706
385 26 622
386 25 703
387 25 421
388 25 393
389 25 159
390 25 126
391 25 655
392 25 57
393 25 258
394 24 369
395 24 14
396 24 918
397 24 595
398 24 928
399 24 950
400 24 473
